
Gurobi 9.0.2 (linux64) logging started Tue May 26 10:07:54 2020

Changed value of parameter LogFile to gurobi_logs/2020-05-26_10:07:33-rproblem9_mode=optimality_predefined_shifts.log
   Prev:   Default: 
Parameter MIPFocus unchanged
   Value: 0  Min: 0  Max: 3  Default: 0
Parameter SolutionLimit unchanged
   Value: 2000000000  Min: 1  Max: 2000000000  Default: 2000000000
Parameter LogToConsole unchanged
   Value: 1  Min: 0  Max: 1  Default: 1
Changed value of parameter TimeLimit to 18000.0
   Prev: inf  Min: 0.0  Max: inf  Default: inf
Gurobi Optimizer version 9.0.2 build v9.0.2rc0 (linux64)
Optimize a model with 451926 rows, 390278 columns and 36615582 nonzeros
Model fingerprint: 0xf4ec775f
Variable types: 56 continuous, 390222 integer (374598 binary)
Coefficient statistics:
  Matrix range     [2e-02, 2e+02]
  Objective range  [2e-01, 2e+00]
  Bounds range     [1e+00, 1e+00]
  RHS range        [1e+00, 4e+02]
Presolve removed 104178 rows and 15504 columns (presolve time = 7s) ...
Presolve removed 104178 rows and 15685 columns (presolve time = 13s) ...
Presolve removed 108493 rows and 20000 columns (presolve time = 19s) ...
Presolve removed 168493 rows and 80000 columns (presolve time = 20s) ...
Presolve removed 175242 rows and 86749 columns (presolve time = 25s) ...
Presolve removed 175242 rows and 86749 columns (presolve time = 30s) ...
Presolve removed 175242 rows and 86749 columns (presolve time = 35s) ...
Presolve removed 176754 rows and 88255 columns (presolve time = 41s) ...
Presolve removed 180701 rows and 88327 columns (presolve time = 46s) ...
Presolve removed 180701 rows and 88327 columns (presolve time = 52s) ...
Presolve removed 189665 rows and 88327 columns (presolve time = 55s) ...
Presolve removed 189665 rows and 88333 columns (presolve time = 65s) ...
Presolve removed 189665 rows and 88333 columns (presolve time = 65s) ...
Presolve removed 189665 rows and 88333 columns (presolve time = 71s) ...
Presolve removed 189665 rows and 88333 columns (presolve time = 76s) ...
Presolve removed 189665 rows and 88333 columns (presolve time = 80s) ...
Presolve removed 189665 rows and 88333 columns (presolve time = 85s) ...
Presolve removed 189665 rows and 88333 columns (presolve time = 90s) ...
Presolve removed 189665 rows and 88333 columns (presolve time = 97s) ...
Presolve removed 189665 rows and 88333 columns (presolve time = 101s) ...
Presolve removed 189665 rows and 88333 columns (presolve time = 105s) ...
Presolve removed 189665 rows and 88333 columns (presolve time = 114s) ...
Presolve removed 189665 rows and 88333 columns (presolve time = 118s) ...
Presolve removed 189665 rows and 88333 columns (presolve time = 120s) ...
Presolve removed 189665 rows and 88333 columns (presolve time = 144s) ...
Presolve removed 189665 rows and 88333 columns (presolve time = 147s) ...
Presolve removed 200231 rows and 98899 columns (presolve time = 155s) ...
Presolve removed 174095 rows and 72763 columns
Presolve time: 154.73s
Presolved: 277831 rows, 317515 columns, 8271358 nonzeros
Variable types: 1 continuous, 317514 integer (301926 binary)

Deterministic concurrent LP optimizer: primal simplex, dual simplex, and barrier
Showing barrier log only...

Root barrier log...

Elapsed ordering time = 7s
Elapsed ordering time = 10s
Elapsed ordering time = 15s
Ordering time: 18.52s

Barrier statistics:
 AA' NZ     : 1.037e+08
 Factor NZ  : 1.542e+08 (roughly 1.5 GBytes of memory)
 Factor Ops : 9.729e+10 (roughly 1 second per iteration)
 Threads    : 21

                  Objective                Residual
Iter       Primal          Dual         Primal    Dual     Compl     Time
   0   3.29711869e+07  4.14579380e+06  3.04e+05 1.98e+00  5.34e+03   202s
   1   3.19684874e+07  5.17482357e+06  2.95e+05 2.33e+01  5.15e+03   202s
   2   2.66240463e+07  9.54023732e+06  2.46e+05 1.63e+01  4.24e+03   203s
   3   1.97628160e+07  1.81862930e+07  1.83e+05 7.38e+00  3.10e+03   204s
   4   1.32441190e+07  2.43336094e+07  1.23e+05 2.52e+00  2.08e+03   205s
   5   7.97928159e+06  2.58242537e+07  7.41e+04 9.98e-01  1.26e+03   206s
   6   2.92392949e+06  2.49507784e+07  2.75e+04 3.42e-01  4.78e+02   207s
   7   1.19654093e+06  2.12498602e+07  1.16e+04 9.19e-02  2.04e+02   208s
   8   3.13642224e+05  1.63784092e+07  3.42e+03 2.50e-02  6.80e+01   208s
   9   9.37456684e+04  1.01823610e+07  1.35e+03 3.47e-03  2.89e+01   209s
  10   3.89588156e+04  4.99803587e+06  6.53e+02 7.28e-11  1.29e+01   210s
  11   8.88218205e+03  2.05155373e+06  2.88e+02 1.78e-11  5.08e+00   211s
  12   9.10919137e+02  7.77661908e+05  8.82e+01 5.40e-12  1.62e+00   212s
  13   4.17050404e+03  3.98060931e+05  2.75e+01 2.25e-12  6.47e-01   213s
  14   4.77732361e+03  2.71279100e+05  1.95e+01 1.39e-12  4.22e-01   213s
  15   5.24136249e+03  1.26009837e+05  1.29e+01 4.94e-13  1.92e-01   214s
  16   5.92858463e+03  4.35117138e+04  3.19e+00 1.05e-13  5.05e-02   215s
  17   6.09100329e+03  1.45243649e+04  1.88e+00 1.46e-13  1.19e-02   216s
  18   6.46182403e+03  1.18257132e+04  1.05e+00 1.11e-13  7.32e-03   217s
  19   6.92008146e+03  9.91716471e+03  5.73e-01 1.16e-13  4.03e-03   218s
  20   7.35300332e+03  8.51217571e+03  2.75e-01 1.92e-13  1.60e-03   218s
  21   7.64150000e+03  8.28987458e+03  1.33e-01 9.99e-14  8.72e-04   219s
  22   7.72176935e+03  8.18307663e+03  9.58e-02 1.18e-13  6.22e-04   220s
  23   7.83107037e+03  8.09945170e+03  4.88e-02 1.21e-13  3.53e-04   221s
  24   7.88506704e+03  8.01782006e+03  2.63e-02 1.21e-13  1.76e-04   222s
  25   7.92335931e+03  7.99215768e+03  1.09e-02 1.17e-13  8.89e-05   223s
  26   7.93773619e+03  7.97133646e+03  5.32e-03 1.05e-13  4.34e-05   223s
  27   7.94862755e+03  7.95596174e+03  1.17e-03 1.31e-13  9.50e-06   224s
  28   7.95140661e+03  7.95281792e+03  2.46e-04 1.33e-13  1.85e-06   225s
  29   7.95221543e+03  7.95224951e+03  5.98e-06 1.44e-13  4.47e-08   226s
  30   7.95223840e+03  7.95223842e+03  1.81e-09 1.54e-13  2.30e-11   227s

Barrier solved model in 30 iterations and 226.99 seconds
Optimal objective 7.95223840e+03


Root crossover log...

    6728 DPushes remaining with DInf 0.0000000e+00               228s
     869 DPushes remaining with DInf 0.0000000e+00               230s
       0 DPushes remaining with DInf 0.0000000e+00               231s

   66281 PPushes remaining with PInf 0.0000000e+00               231s
   58420 PPushes remaining with PInf 0.0000000e+00               237s
   56570 PPushes remaining with PInf 0.0000000e+00               240s
   43296 PPushes remaining with PInf 0.0000000e+00               249s
   30655 PPushes remaining with PInf 0.0000000e+00               254s
   24293 PPushes remaining with PInf 0.0000000e+00               258s
   11621 PPushes remaining with PInf 0.0000000e+00               264s
   10912 PPushes remaining with PInf 0.0000000e+00               266s
    9622 PPushes remaining with PInf 0.0000000e+00               272s
    8593 PPushes remaining with PInf 0.0000000e+00               278s
    8045 PPushes remaining with PInf 0.0000000e+00               280s
    7046 PPushes remaining with PInf 0.0000000e+00               285s
    5994 PPushes remaining with PInf 0.0000000e+00               291s
    5276 PPushes remaining with PInf 0.0000000e+00               297s
    4498 PPushes remaining with PInf 0.0000000e+00               303s
    4124 PPushes remaining with PInf 0.0000000e+00               307s
    3424 PPushes remaining with PInf 0.0000000e+00               313s
    3140 PPushes remaining with PInf 0.0000000e+00               315s
    2525 PPushes remaining with PInf 0.0000000e+00               320s
    1928 PPushes remaining with PInf 0.0000000e+00               327s
    1646 PPushes remaining with PInf 0.0000000e+00               331s
    1329 PPushes remaining with PInf 0.0000000e+00               335s
     735 PPushes remaining with PInf 0.0000000e+00               344s
     439 PPushes remaining with PInf 0.0000000e+00               349s
       0 PPushes remaining with PInf 0.0000000e+00               354s

  Push phase complete: Pinf 0.0000000e+00, Dinf 1.7079936e-10    354s


Root simplex log...

Iteration    Objective       Primal Inf.    Dual Inf.      Time
   72748    7.9522384e+03   0.000000e+00   0.000000e+00    354s
Concurrent spin time: 0.00s

Solved with barrier

Root relaxation: objective 7.952238e+03, 72748 iterations, 191.77 seconds

    Nodes    |    Current Node    |     Objective Bounds      |     Work
 Expl Unexpl |  Obj  Depth IntInf | Incumbent    BestBd   Gap | It/Node Time

     0     0 7952.23841    0 29086          - 7952.23841      -     -  936s
     0     0 7951.59888    0 25657          - 7951.59888      -     - 1738s
     0     0 7949.39029    0 24492          - 7949.39029      -     - 2713s
     0     0 7949.18161    0 23458          - 7949.18161      -     - 3664s
     0     0 7949.17418    0 23207          - 7949.17418      -     - 4105s
     0     0 7949.17417    0 22866          - 7949.17417      -     - 4229s
     0     0 7948.48021    0 23531          - 7948.48021      -     - 5259s
     0     0 7947.50901    0 23860          - 7947.50901      -     - 6519s
     0     0 7946.33584    0 24507          - 7946.33584      -     - 7577s
     0     0 7946.12767    0 24557          - 7946.12767      -     - 8023s
     0     0 7946.07625    0 24847          - 7946.07625      -     - 8264s
     0     0 7946.07617    0 24656          - 7946.07617      -     - 8373s
     0     0 7945.65410    0 25198          - 7945.65410      -     - 9084s
     0     0 7943.27149    0 26001          - 7943.27149      -     - 10204s
     0     0 7940.72529    0 27009          - 7940.72529      -     - 11880s
     0     0 7940.29855    0 26966          - 7940.29855      -     - 12563s
     0     0 7940.23914    0 26821          - 7940.23914      -     - 12958s
     0     0 7940.22962    0 26833          - 7940.22962      -     - 13102s
     0     0 7940.22804    0 26952          - 7940.22804      -     - 13192s
     0     0 7940.22798    0 26748          - 7940.22798      -     - 13253s
     0     0 7939.33390    0 27418          - 7939.33390      -     - 14102s
     0     0 7935.66703    0 27001          - 7935.66703      -     - 15503s
     0     0 7934.38291    0 28282          - 7934.38291      -     - 16616s
     0     0 7934.17595    0 28021          - 7934.17595      -     - 17262s
     0     0 7934.14916    0 28304          - 7934.14916      -     - 17713s
     0     0 7934.14515    0 28362          - 7934.14515      -     - 17878s
     0     0 7934.14376    0 28417          - 7934.14376      -     - 17979s

Cutting planes:
  Gomory: 36
  Cover: 680
  Implied bound: 471
  Clique: 1182
  MIR: 897
  StrongCG: 81
  GUB cover: 269
  Zero half: 461
  RLT: 3
  Relax-and-lift: 976

Explored 1 nodes (828787 simplex iterations) in 18008.11 seconds
Thread count was 24 (of 48 available processors)

Solution count 0

Time limit reached
Best objective -, best bound 7.934143756427e+03, gap -
